NAME : Euclidean Random Tour : n = 100, sample = 15 
COMMENT : Coordinates are generated uniformly sampled from [0, 100000] x [0, 100000] 
DIMENSION : 100 
EDGE_WEIGHT_TYPE : EUC_2D 
TOUR_SECTION 
1
61
88
29
50
45
25
46
87
24
92
48
41
77
31
93
4
76
17
54
66
83
56
86
62
75
9
100
2
95
40
74
37
97
14
32
38
58
23
5
55
78
81
63
16
96
42
30
47
71
11
80
85
19
7
98
59
99
20
53
10
27
73
94
91
6
18
89
26
35
34
64
52
28
60
84
43
22
13
57
68
33
65
44
90
69
79
82
49
51
3
12
72
67
39
36
8
70
15
21
-1
